99 100
39 25 1
55 64 1
48 37 1
59 58 1
59 76 1
42 6 1
74 94 1
51 56 1
92 89 1
90 59 1
62 61 1
69 16 1
86 63 1
100 74 1
13 42 1
80 36 1
43 49 1
70 50 1
74 84 1
98 68 1
59 97 1
68 39 1
99 38 1
37 12 1
89 56 1
98 88 1
33 67 1
87 67 1
80 77 1
54 100 1
80 79 2
100 85 1
82 59 1
72 73 1
88 68 1
73 63 1
98 4 1
2 71 1
58 68 1
58 54 1
23 10 1
94 54 1
93 30 1
6 7 1
10 28 1
97 62 1
83 53 1
64 70 1
72 8 1
60 82 1
88 89 1
35 98 1
70 99 1
87 63 1
69 36 1
67 84 1
93 50 1
83 7 1
34 44 1
11 33 1
84 16 1
75 61 1
24 15 1
66 93 1
73 91 1
86 78 1
75 96 1
84 65 1
9 69 1
89 90 1
62 100 1
100 78 1
94 96 1
63 95 1
52 95 1
87 40 1
93 47 1
50 61 1
54 52 1
73 62 1
48 11 1
99 90 1
69 71 1
77 97 1
78 35 1
9 87 1
95 51 1
96 43 1
99 71 1
80 82 1
81 94 1
70 100 1
42 79 1
63 96 1
31 48 1
10 20 1
97 79 1
58 71 1
91 63 1
100 100 
100 100 
100 100 
100 100 
100 100 
100 100 
100 100 
100 100 
100 100 
100 100 
100 100 
100 100 
100 100 
100 100 
100 100 
100 100 
100 100 
100 100 
100 100 
100 100 
100 100 
100 100 
100 100 
100 100 
100 100 
100 100 
100 100 
100 100 
100 100 
100 100 
100 100 
100 100 
100 100 
100 100 
100 100 
100 100 
100 100 
100 100 
100 100 
100 100 
100 100 
100 100 
100 100 
100 100 
100 100 
100 100 
100 100 
100 100 
100 100 
100 100 
100 100 
100 100 
100 100 
100 100 
100 100 
100 100 
100 100 
100 100 
100 100 
100 100 
100 100 
100 100 
100 100 
100 100 
100 100 
100 100 
100 100 
100 100 
100 100 
100 100 
100 100 
100 100 
100 100 
100 100 
100 100 
100 100 
100 100 
100 100 
100 100 
100 100 
100 100 
100 100 
100 100 
100 100 
100 100 
100 100 
100 100 
100 100 
100 100 
100 100 
100 100 
100 100 
100 100 
100 100 
100 100 
100 100 
100 100 
100 100 
100 100 
100 100 
